p cnf 509 1220
a 300 303 307 310 315 318 322 325 331 334 338 341 347 350 354 357 364 367 371 474 377 380 482 385 391 394 492 400 405 408 412 415 7 13 24 30 2 1 40 18 6 12 35 23 29 50 45 60 55 70 65 80 75 85 90 95 105 100 110 115 120 130 125 135 140 145 150 180 162 154 158 175 167 171 190 185 200 195 209 205 219 214 224 229 234 244 239 249 254 259 268 264 273 278 283 288 292 296 0
d 374 2 474 288 7 13 0
d 398 2 492 0
d 384 2 482 292 296 13 0
d 3 2 0
d 4 1 2 0
d 5 1 2 0
d 8 7 0
d 9 6 7 0
d 10 6 7 0
d 11 1 2 6 7 0
d 14 13 0
d 15 12 13 0
d 16 12 13 0
d 17 1 2 6 7 12 13 0
d 19 6 12 0
d 20 18 6 12 0
d 21 18 6 12 0
d 22 1 2 6 7 12 13 18 0
d 25 24 0
d 26 23 24 0
d 27 23 24 0
d 28 1 2 6 7 12 13 18 23 24 0
d 31 30 0
d 32 29 30 0
d 33 29 30 0
d 34 1 2 6 7 12 13 18 23 24 29 30 0
d 36 23 29 0
d 37 35 23 29 0
d 38 35 23 29 0
d 39 1 2 6 7 12 13 18 23 24 29 30 35 0
d 41 18 35 0
d 42 40 18 35 0
d 43 40 18 35 0
d 44 1 2 6 7 12 13 18 23 24 29 30 35 40 0
d 46 7 12 0
d 47 45 7 12 0
d 48 45 7 12 0
d 49 1 2 6 7 12 13 18 23 24 29 30 35 40 45 0
d 51 45 35 0
d 52 50 45 35 0
d 53 50 45 35 0
d 54 1 2 6 7 12 13 18 23 24 29 30 35 40 45 50 0
d 56 6 13 0
d 57 55 6 13 0
d 58 55 6 13 0
d 59 1 2 6 7 12 13 18 23 24 29 30 35 40 45 50 55 0
d 61 55 35 0
d 62 60 55 35 0
d 63 60 55 35 0
d 64 1 2 6 7 12 13 18 23 24 29 30 35 40 45 50 55 60 0
d 66 7 13 0
d 67 65 7 13 0
d 68 65 7 13 0
d 69 1 2 6 7 12 13 18 23 24 29 30 35 40 45 50 55 60 65 0
d 71 65 35 0
d 72 70 65 35 0
d 73 70 65 35 0
d 74 1 2 6 7 12 13 18 23 24 29 30 35 40 45 50 55 60 65 70 0
d 76 24 29 0
d 77 75 24 29 0
d 78 75 24 29 0
d 79 1 2 6 7 12 13 18 23 24 29 30 35 40 45 50 55 60 65 70 75 0
d 81 18 75 0
d 82 80 18 75 0
d 83 80 18 75 0
d 84 1 2 6 7 12 13 18 23 24 29 30 35 40 45 50 55 60 65 70 75 80 0
d 86 45 75 0
d 87 85 45 75 0
d 88 85 45 75 0
d 89 1 2 6 7 12 13 18 23 24 29 30 35 40 45 50 55 60 65 70 75 80 85 0
d 91 55 75 0
d 92 90 55 75 0
d 93 90 55 75 0
d 94 1 2 6 7 12 13 18 23 24 29 30 35 40 45 50 55 60 65 70 75 80 85 90 0
d 96 65 75 0
d 97 95 65 75 0
d 98 95 65 75 0
d 99 1 2 6 7 12 13 18 23 24 29 30 35 40 45 50 55 60 65 70 75 80 85 90 95 0
d 101 23 30 0
d 102 100 23 30 0
d 103 100 23 30 0
d 104 1 2 6 7 12 13 18 23 24 29 30 35 40 45 50 55 60 65 70 75 80 85 90 95 100 0
d 106 18 100 0
d 107 105 18 100 0
d 108 105 18 100 0
d 109 1 2 6 7 12 13 18 23 24 29 30 35 40 45 50 55 60 65 70 75 80 85 90 95 100 105 0
d 111 45 100 0
d 112 110 45 100 0
d 113 110 45 100 0
d 114 1 2 6 7 12 13 18 23 24 29 30 35 40 45 50 55 60 65 70 75 80 85 90 95 100 105 110 0
d 116 55 100 0
d 117 115 55 100 0
d 118 115 55 100 0
d 119 1 2 6 7 12 13 18 23 24 29 30 35 40 45 50 55 60 65 70 75 80 85 90 95 100 105 110 115 0
d 121 65 100 0
d 122 120 65 100 0
d 123 120 65 100 0
d 124 1 2 6 7 12 13 18 23 24 29 30 35 40 45 50 55 60 65 70 75 80 85 90 95 100 105 110 115 120 0
d 126 24 30 0
d 127 125 24 30 0
d 128 125 24 30 0
d 129 1 2 6 7 12 13 18 23 24 29 30 35 40 45 50 55 60 65 70 75 80 85 90 95 100 105 110 115 120 125 0
d 131 18 125 0
d 132 130 18 125 0
d 133 130 18 125 0
d 134 1 2 6 7 12 13 18 23 24 29 30 35 40 45 50 55 60 65 70 75 80 85 90 95 100 105 110 115 120 125 130 0
d 136 45 125 0
d 137 135 45 125 0
d 138 135 45 125 0
d 139 1 2 6 7 12 13 18 23 24 29 30 35 40 45 50 55 60 65 70 75 80 85 90 95 100 105 110 115 120 125 130 135 0
d 141 55 125 0
d 142 140 55 125 0
d 143 140 55 125 0
d 144 1 2 6 7 12 13 18 23 24 29 30 35 40 45 50 55 60 65 70 75 80 85 90 95 100 105 110 115 120 125 130 135 140 0
d 146 65 125 0
d 147 145 65 125 0
d 148 145 65 125 0
d 149 1 2 6 7 12 13 18 23 24 29 30 35 40 45 50 55 60 65 70 75 80 85 90 95 100 105 110 115 120 125 130 135 140 145 0
d 151 150 2 0
d 152 150 2 0
d 153 1 2 6 7 12 13 18 23 24 29 30 35 40 45 50 55 60 65 70 75 80 85 90 95 100 105 110 115 120 125 130 135 140 145 150 0
d 155 154 7 0
d 156 154 7 0
d 157 1 2 6 7 12 13 18 23 24 29 30 35 40 45 50 55 60 65 70 75 80 85 90 95 100 105 110 115 120 125 130 135 140 145 150 154 0
d 159 158 13 0
d 160 158 13 0
d 161 1 2 6 7 12 13 18 23 24 29 30 35 40 45 50 55 60 65 70 75 80 85 90 95 100 105 110 115 120 125 130 135 140 145 150 154 158 0
d 163 154 158 0
d 164 162 154 158 0
d 165 162 154 158 0
d 166 1 2 6 7 12 13 18 23 24 29 30 35 40 45 50 55 60 65 70 75 80 85 90 95 100 105 110 115 120 125 130 135 140 145 150 154 158 162 0
d 168 167 24 0
d 169 167 24 0
d 170 1 2 6 7 12 13 18 23 24 29 30 35 40 45 50 55 60 65 70 75 80 85 90 95 100 105 110 115 120 125 130 135 140 145 150 154 158 162 167 0
d 172 171 30 0
d 173 171 30 0
d 174 1 2 6 7 12 13 18 23 24 29 30 35 40 45 50 55 60 65 70 75 80 85 90 95 100 105 110 115 120 125 130 135 140 145 150 154 158 162 167 171 0
d 176 167 171 0
d 177 175 167 171 0
d 178 175 167 171 0
d 179 1 2 6 7 12 13 18 23 24 29 30 35 40 45 50 55 60 65 70 75 80 85 90 95 100 105 110 115 120 125 130 135 140 145 150 154 158 162 167 171 175 0
d 181 162 175 0
d 182 180 162 175 0
d 183 180 162 175 0
d 184 1 2 6 7 12 13 18 23 24 29 30 35 40 45 50 55 60 65 70 75 80 85 90 95 100 105 110 115 120 125 130 135 140 145 150 154 158 162 167 171 175 180 0
d 186 7 158 0
d 187 185 7 158 0
d 188 185 7 158 0
d 189 1 2 6 7 12 13 18 23 24 29 30 35 40 45 50 55 60 65 70 75 80 85 90 95 100 105 110 115 120 125 130 135 140 145 150 154 158 162 167 171 175 180 185 0
d 191 185 175 0
d 192 190 185 175 0
d 193 190 185 175 0
d 194 1 2 6 7 12 13 18 23 24 29 30 35 40 45 50 55 60 65 70 75 80 85 90 95 100 105 110 115 120 125 130 135 140 145 150 154 158 162 167 171 175 180 185 190 0
d 196 154 13 0
d 197 195 154 13 0
d 198 195 154 13 0
d 199 1 2 6 7 12 13 18 23 24 29 30 35 40 45 50 55 60 65 70 75 80 85 90 95 100 105 110 115 120 125 130 135 140 145 150 154 158 162 167 171 175 180 185 190 195 0
d 201 195 175 0
d 202 200 195 175 0
d 203 200 195 175 0
d 204 1 2 6 7 12 13 18 23 24 29 30 35 40 45 50 55 60 65 70 75 80 85 90 95 100 105 110 115 120 125 130 135 140 145 150 154 158 162 167 171 175 180 185 190 195 200 0
d 206 205 7 13 0
d 207 205 7 13 0
d 208 1 2 6 7 12 13 18 23 24 29 30 35 40 45 50 55 60 65 70 75 80 85 90 95 100 105 110 115 120 125 130 135 140 145 150 154 158 162 167 171 175 180 185 190 195 200 205 0
d 210 205 175 0
d 211 209 205 175 0
d 212 209 205 175 0
d 213 1 2 6 7 12 13 18 23 24 29 30 35 40 45 50 55 60 65 70 75 80 85 90 95 100 105 110 115 120 125 130 135 140 145 150 154 158 162 167 171 175 180 185 190 195 200 205 209 0
d 215 24 171 0
d 216 214 24 171 0
d 217 214 24 171 0
d 218 1 2 6 7 12 13 18 23 24 29 30 35 40 45 50 55 60 65 70 75 80 85 90 95 100 105 110 115 120 125 130 135 140 145 150 154 158 162 167 171 175 180 185 190 195 200 205 209 214 0
d 220 162 214 0
d 221 219 162 214 0
d 222 219 162 214 0
d 223 1 2 6 7 12 13 18 23 24 29 30 35 40 45 50 55 60 65 70 75 80 85 90 95 100 105 110 115 120 125 130 135 140 145 150 154 158 162 167 171 175 180 185 190 195 200 205 209 214 219 0
d 225 185 214 0
d 226 224 185 214 0
d 227 224 185 214 0
d 228 1 2 6 7 12 13 18 23 24 29 30 35 40 45 50 55 60 65 70 75 80 85 90 95 100 105 110 115 120 125 130 135 140 145 150 154 158 162 167 171 175 180 185 190 195 200 205 209 214 219 224 0
d 230 195 214 0
d 231 229 195 214 0
d 232 229 195 214 0
d 233 1 2 6 7 12 13 18 23 24 29 30 35 40 45 50 55 60 65 70 75 80 85 90 95 100 105 110 115 120 125 130 135 140 145 150 154 158 162 167 171 175 180 185 190 195 200 205 209 214 219 224 229 0
d 235 205 214 0
d 236 234 205 214 0
d 237 234 205 214 0
d 238 1 2 6 7 12 13 18 23 24 29 30 35 40 45 50 55 60 65 70 75 80 85 90 95 100 105 110 115 120 125 130 135 140 145 150 154 158 162 167 171 175 180 185 190 195 200 205 209 214 219 224 229 234 0
d 240 167 30 0
d 241 239 167 30 0
d 242 239 167 30 0
d 243 1 2 6 7 12 13 18 23 24 29 30 35 40 45 50 55 60 65 70 75 80 85 90 95 100 105 110 115 120 125 130 135 140 145 150 154 158 162 167 171 175 180 185 190 195 200 205 209 214 219 224 229 234 239 0
d 245 162 239 0
d 246 244 162 239 0
d 247 244 162 239 0
d 248 1 2 6 7 12 13 18 23 24 29 30 35 40 45 50 55 60 65 70 75 80 85 90 95 100 105 110 115 120 125 130 135 140 145 150 154 158 162 167 171 175 180 185 190 195 200 205 209 214 219 224 229 234 239 244 0
d 250 185 239 0
d 251 249 185 239 0
d 252 249 185 239 0
d 253 1 2 6 7 12 13 18 23 24 29 30 35 40 45 50 55 60 65 70 75 80 85 90 95 100 105 110 115 120 125 130 135 140 145 150 154 158 162 167 171 175 180 185 190 195 200 205 209 214 219 224 229 234 239 244 249 0
d 255 195 239 0
d 256 254 195 239 0
d 257 254 195 239 0
d 258 1 2 6 7 12 13 18 23 24 29 30 35 40 45 50 55 60 65 70 75 80 85 90 95 100 105 110 115 120 125 130 135 140 145 150 154 158 162 167 171 175 180 185 190 195 200 205 209 214 219 224 229 234 239 244 249 254 0
d 260 205 239 0
d 261 259 205 239 0
d 262 259 205 239 0
d 263 1 2 6 7 12 13 18 23 24 29 30 35 40 45 50 55 60 65 70 75 80 85 90 95 100 105 110 115 120 125 130 135 140 145 150 154 158 162 167 171 175 180 185 190 195 200 205 209 214 219 224 229 234 239 244 249 254 259 0
d 265 264 24 30 0
d 266 264 24 30 0
d 267 1 2 6 7 12 13 18 23 24 29 30 35 40 45 50 55 60 65 70 75 80 85 90 95 100 105 110 115 120 125 130 135 140 145 150 154 158 162 167 171 175 180 185 190 195 200 205 209 214 219 224 229 234 239 244 249 254 259 264 0
d 269 162 264 0
d 270 268 162 264 0
d 271 268 162 264 0
d 272 1 2 6 7 12 13 18 23 24 29 30 35 40 45 50 55 60 65 70 75 80 85 90 95 100 105 110 115 120 125 130 135 140 145 150 154 158 162 167 171 175 180 185 190 195 200 205 209 214 219 224 229 234 239 244 249 254 259 264 268 0
d 274 185 264 0
d 275 273 185 264 0
d 276 273 185 264 0
d 277 1 2 6 7 12 13 18 23 24 29 30 35 40 45 50 55 60 65 70 75 80 85 90 95 100 105 110 115 120 125 130 135 140 145 150 154 158 162 167 171 175 180 185 190 195 200 205 209 214 219 224 229 234 239 244 249 254 259 264 268 273 0
d 279 195 264 0
d 280 278 195 264 0
d 281 278 195 264 0
d 282 1 2 6 7 12 13 18 23 24 29 30 35 40 45 50 55 60 65 70 75 80 85 90 95 100 105 110 115 120 125 130 135 140 145 150 154 158 162 167 171 175 180 185 190 195 200 205 209 214 219 224 229 234 239 244 249 254 259 264 268 273 278 0
d 284 205 264 0
d 285 283 205 264 0
d 286 283 205 264 0
d 287 1 2 6 7 12 13 18 23 24 29 30 35 40 45 50 55 60 65 70 75 80 85 90 95 100 105 110 115 120 125 130 135 140 145 150 154 158 162 167 171 175 180 185 190 195 200 205 209 214 219 224 229 234 239 244 249 254 259 264 268 273 278 283 0
d 289 288 175 0
d 290 288 175 0
d 291 1 2 6 7 12 13 18 23 24 29 30 35 40 45 50 55 60 65 70 75 80 85 90 95 100 105 110 115 120 125 130 135 140 145 150 154 158 162 167 171 175 180 185 190 195 200 205 209 214 219 224 229 234 239 244 249 254 259 264 268 273 278 283 288 0
d 293 292 214 0
d 294 292 214 0
d 295 1 2 6 7 12 13 18 23 24 29 30 35 40 45 50 55 60 65 70 75 80 85 90 95 100 105 110 115 120 125 130 135 140 145 150 154 158 162 167 171 175 180 185 190 195 200 205 209 214 219 224 229 234 239 244 249 254 259 264 268 273 278 283 288 292 0
d 297 296 154 0
d 298 296 154 0
d 299 1 2 6 7 12 13 18 23 24 29 30 35 40 45 50 55 60 65 70 75 80 85 90 95 100 105 110 115 120 125 130 135 140 145 150 154 158 162 167 171 175 180 185 190 195 200 205 209 214 219 224 229 234 239 244 249 254 259 264 268 273 278 283 288 292 296 0
d 301 150 300 0
d 302 150 300 180 0
d 304 150 303 0
d 305 150 303 190 0
d 306 150 300 180 303 190 0
d 308 150 307 0
d 309 150 307 200 0
d 311 150 310 0
d 312 150 310 209 0
d 313 150 307 200 310 209 0
d 314 150 300 180 303 190 307 200 310 209 0
d 316 150 315 0
d 317 150 315 219 0
d 319 150 318 0
d 320 150 318 224 0
d 321 150 315 219 318 224 0
d 323 150 322 0
d 324 150 322 229 0
d 326 150 325 0
d 327 150 325 234 0
d 328 150 322 229 325 234 0
d 329 150 315 219 318 224 322 229 325 234 0
d 330 150 300 180 303 190 307 200 310 209 315 219 318 224 322 229 325 234 0
d 332 150 331 0
d 333 150 331 244 0
d 335 150 334 0
d 336 150 334 249 0
d 337 150 331 244 334 249 0
d 339 150 338 0
d 340 150 338 254 0
d 342 150 341 0
d 343 150 341 259 0
d 344 150 338 254 341 259 0
d 345 150 338 254 341 259 0
d 346 150 331 244 334 249 338 254 341 259 0
d 348 150 347 0
d 349 150 347 268 0
d 351 150 350 0
d 352 150 350 273 0
d 353 150 347 268 350 273 0
d 355 150 354 0
d 356 150 354 278 0
d 358 150 357 0
d 359 150 357 283 0
d 360 150 354 278 357 283 0
d 361 150 347 268 350 273 354 278 357 283 0
d 362 150 331 244 334 249 338 254 341 259 347 268 350 273 354 278 357 283 0
d 363 150 300 180 303 190 307 200 310 209 315 219 318 224 322 229 325 234 331 244 334 249 338 254 341 259 347 268 350 273 354 278 357 283 0
d 365 2 364 0
d 366 2 364 180 0
d 368 2 367 0
d 369 2 367 190 0
d 370 2 364 180 367 190 0
d 372 2 371 0
d 373 2 371 200 0
d 375 2 371 200 474 288 7 13 0
d 376 2 364 180 367 190 371 200 474 288 7 13 0
d 378 2 377 0
d 379 2 377 219 0
d 381 2 380 0
d 382 2 380 224 0
d 383 2 377 219 380 224 0
d 386 2 385 0
d 387 2 385 234 0
d 388 2 482 292 296 13 385 234 0
d 389 2 377 219 380 224 482 292 296 13 385 234 0
d 390 2 364 180 367 190 371 200 474 288 7 13 377 219 380 224 482 292 296 385 234 0
d 392 2 391 0
d 393 2 391 244 0
d 395 2 394 0
d 396 2 394 249 0
d 397 2 391 244 394 249 0
d 399 2 492 254 0
d 401 2 400 0
d 402 2 400 259 0
d 403 2 492 254 400 259 0
d 404 2 391 244 394 249 492 254 400 259 0
d 406 2 405 0
d 407 2 405 268 0
d 409 2 408 0
d 410 2 408 273 0
d 411 2 405 268 408 273 0
d 413 2 412 0
d 414 2 412 278 0
d 416 2 415 0
d 417 2 415 283 0
d 418 2 412 278 415 283 0
d 419 2 405 268 408 273 412 278 415 283 0
d 420 2 391 244 394 249 492 254 400 259 405 268 408 273 412 278 415 283 0
d 421 2 364 180 367 190 371 200 474 288 7 13 377 219 380 224 482 292 296 385 234 391 244 394 249 492 254 400 259 405 268 408 273 412 278 415 283 0
d 422 150 300 180 303 190 307 200 310 209 315 219 318 224 322 229 325 234 331 244 334 249 338 254 341 259 347 268 350 273 354 278 357 283 2 364 367 371 474 288 7 13 377 380 482 292 296 385 391 394 492 400 405 408 412 415 0
d 423 1 300 0
d 424 1 300 40 0
d 425 1 303 0
d 426 1 303 50 0
d 427 1 300 40 303 50 0
d 428 1 307 0
d 429 1 307 60 0
d 430 1 310 0
d 431 1 310 70 0
d 432 1 307 60 310 70 0
d 433 1 300 40 303 50 307 60 310 70 0
d 434 1 315 0
d 435 1 315 80 0
d 436 1 318 0
d 437 1 318 85 0
d 438 1 315 80 318 85 0
d 439 1 322 0
d 440 1 322 90 0
d 441 1 325 0
d 442 1 325 95 0
d 443 1 322 90 325 95 0
d 444 1 315 80 318 85 322 90 325 95 0
d 445 1 300 40 303 50 307 60 310 70 315 80 318 85 322 90 325 95 0
d 446 1 331 0
d 447 1 331 105 0
d 448 1 334 0
d 449 1 334 110 0
d 450 1 331 105 334 110 0
d 451 1 338 0
d 452 1 338 115 0
d 453 1 341 0
d 454 1 341 120 0
d 455 1 338 115 341 120 0
d 456 1 331 105 334 110 338 115 341 120 0
d 457 1 347 0
d 458 1 347 130 0
d 459 1 350 0
d 460 1 350 135 0
d 461 1 347 130 350 135 0
d 462 1 354 0
d 463 1 354 140 0
d 464 1 357 0
d 465 1 357 145 0
d 466 1 354 140 357 145 0
d 467 1 347 130 350 135 354 140 357 145 0
d 468 1 331 105 334 110 338 115 341 120 347 130 350 135 354 140 357 145 0
d 469 1 300 40 303 50 307 60 310 70 315 80 318 85 322 90 325 95 331 105 334 110 338 115 341 120 347 130 350 135 354 140 357 145 0
d 470 2 364 40 0
d 471 2 367 50 0
d 472 2 364 40 367 50 0
d 473 2 371 60 0
d 475 2 474 0
d 476 2 474 70 0
d 477 2 371 60 474 70 0
d 478 2 364 40 367 50 371 60 474 70 0
d 479 2 377 80 0
d 480 2 380 85 0
d 481 2 377 80 380 85 0
d 483 2 482 0
d 484 2 482 90 0
d 485 2 385 95 0
d 486 2 482 90 385 95 0
d 487 2 377 80 380 85 482 90 385 95 0
d 488 2 364 40 367 50 371 60 474 70 377 80 380 85 482 90 385 95 0
d 489 2 391 105 0
d 490 2 394 110 0
d 491 2 391 105 394 110 0
d 493 2 492 0
d 494 2 492 115 0
d 495 2 400 120 0
d 496 2 492 115 400 120 0
d 497 2 391 105 394 110 492 115 400 120 0
d 498 2 405 130 0
d 499 2 408 135 0
d 500 2 405 130 408 135 0
d 501 2 412 140 0
d 502 2 415 145 0
d 503 2 412 140 415 145 0
d 504 2 405 130 408 135 412 140 415 145 0
d 505 2 391 105 394 110 492 115 400 120 405 130 408 135 412 140 415 145 0
d 506 2 364 40 367 50 371 60 474 70 377 80 380 85 482 90 385 95 391 105 394 110 492 115 400 120 405 130 408 135 412 140 415 145 0
d 507 1 300 40 303 50 307 60 310 70 315 80 318 85 322 90 325 95 331 105 334 110 338 115 341 120 347 130 350 135 354 140 357 145 2 364 367 371 474 377 380 482 385 391 394 492 400 405 408 412 415 0
d 508 150 300 180 303 190 307 200 310 209 315 219 318 224 322 229 325 234 331 244 334 249 338 254 341 259 347 268 350 273 354 278 357 283 2 364 367 371 474 288 7 13 377 380 482 292 296 385 391 394 492 400 405 408 412 415 1 40 50 60 70 80 85 90 95 105 110 115 120 130 135 140 145 0
d 509 1 2 6 7 12 13 18 23 24 29 30 35 40 45 50 55 60 65 70 75 80 85 90 95 100 105 110 115 120 125 130 135 140 145 150 154 158 162 167 171 175 180 185 190 195 200 205 209 214 219 224 229 234 239 244 249 254 259 264 268 273 278 283 288 292 296 300 303 307 310 315 318 322 325 331 334 338 341 347 350 354 357 364 367 371 474 377 380 482 385 391 394 492 400 405 408 412 415 0
3 2 0
-3 -2 0
4 -1 -3 0
4 1 3 0
-4 -1 3 0
-4 1 -3 0
5 4 0
-5 -4 0
8 7 0
-8 -7 0
9 -6 -8 0
9 6 8 0
-9 -6 8 0
-9 6 -8 0
10 9 0
-10 -9 0
11 -5 0
11 -10 0
-11 5 10 0
14 13 0
-14 -13 0
15 -12 -14 0
15 12 14 0
-15 -12 14 0
-15 12 -14 0
16 15 0
-16 -15 0
17 -11 0
17 -16 0
-17 11 16 0
-19 6 0
-19 12 0
19 -6 -12 0
20 -18 -19 0
20 18 19 0
-20 -18 19 0
-20 18 -19 0
21 20 0
-21 -20 0
22 -17 0
22 -21 0
-22 17 21 0
25 24 0
-25 -24 0
26 -23 -25 0
26 23 25 0
-26 -23 25 0
-26 23 -25 0
27 26 0
-27 -26 0
28 -22 0
28 -27 0
-28 22 27 0
31 30 0
-31 -30 0
32 -29 -31 0
32 29 31 0
-32 -29 31 0
-32 29 -31 0
33 32 0
-33 -32 0
34 -28 0
34 -33 0
-34 28 33 0
-36 23 0
-36 29 0
36 -23 -29 0
37 -35 -36 0
37 35 36 0
-37 -35 36 0
-37 35 -36 0
38 37 0
-38 -37 0
39 -34 0
39 -38 0
-39 34 38 0
-41 18 0
-41 35 0
41 -18 -35 0
42 -40 -41 0
42 40 41 0
-42 -40 41 0
-42 40 -41 0
43 42 0
-43 -42 0
44 -39 0
44 -43 0
-44 39 43 0
-46 7 0
-46 12 0
46 -7 -12 0
47 -45 -46 0
47 45 46 0
-47 -45 46 0
-47 45 -46 0
48 47 0
-48 -47 0
49 -44 0
49 -48 0
-49 44 48 0
-51 45 0
-51 35 0
51 -45 -35 0
52 -50 -51 0
52 50 51 0
-52 -50 51 0
-52 50 -51 0
53 52 0
-53 -52 0
54 -49 0
54 -53 0
-54 49 53 0
-56 6 0
-56 13 0
56 -6 -13 0
57 -55 -56 0
57 55 56 0
-57 -55 56 0
-57 55 -56 0
58 57 0
-58 -57 0
59 -54 0
59 -58 0
-59 54 58 0
-61 55 0
-61 35 0
61 -55 -35 0
62 -60 -61 0
62 60 61 0
-62 -60 61 0
-62 60 -61 0
63 62 0
-63 -62 0
64 -59 0
64 -63 0
-64 59 63 0
-66 7 0
-66 13 0
66 -7 -13 0
67 -65 -66 0
67 65 66 0
-67 -65 66 0
-67 65 -66 0
68 67 0
-68 -67 0
69 -64 0
69 -68 0
-69 64 68 0
-71 65 0
-71 35 0
71 -65 -35 0
72 -70 -71 0
72 70 71 0
-72 -70 71 0
-72 70 -71 0
73 72 0
-73 -72 0
74 -69 0
74 -73 0
-74 69 73 0
-76 24 0
-76 29 0
76 -24 -29 0
77 -75 -76 0
77 75 76 0
-77 -75 76 0
-77 75 -76 0
78 77 0
-78 -77 0
79 -74 0
79 -78 0
-79 74 78 0
-81 18 0
-81 75 0
81 -18 -75 0
82 -80 -81 0
82 80 81 0
-82 -80 81 0
-82 80 -81 0
83 82 0
-83 -82 0
84 -79 0
84 -83 0
-84 79 83 0
-86 45 0
-86 75 0
86 -45 -75 0
87 -85 -86 0
87 85 86 0
-87 -85 86 0
-87 85 -86 0
88 87 0
-88 -87 0
89 -84 0
89 -88 0
-89 84 88 0
-91 55 0
-91 75 0
91 -55 -75 0
92 -90 -91 0
92 90 91 0
-92 -90 91 0
-92 90 -91 0
93 92 0
-93 -92 0
94 -89 0
94 -93 0
-94 89 93 0
-96 65 0
-96 75 0
96 -65 -75 0
97 -95 -96 0
97 95 96 0
-97 -95 96 0
-97 95 -96 0
98 97 0
-98 -97 0
99 -94 0
99 -98 0
-99 94 98 0
-101 23 0
-101 30 0
101 -23 -30 0
102 -100 -101 0
102 100 101 0
-102 -100 101 0
-102 100 -101 0
103 102 0
-103 -102 0
104 -99 0
104 -103 0
-104 99 103 0
-106 18 0
-106 100 0
106 -18 -100 0
107 -105 -106 0
107 105 106 0
-107 -105 106 0
-107 105 -106 0
108 107 0
-108 -107 0
109 -104 0
109 -108 0
-109 104 108 0
-111 45 0
-111 100 0
111 -45 -100 0
112 -110 -111 0
112 110 111 0
-112 -110 111 0
-112 110 -111 0
113 112 0
-113 -112 0
114 -109 0
114 -113 0
-114 109 113 0
-116 55 0
-116 100 0
116 -55 -100 0
117 -115 -116 0
117 115 116 0
-117 -115 116 0
-117 115 -116 0
118 117 0
-118 -117 0
119 -114 0
119 -118 0
-119 114 118 0
-121 65 0
-121 100 0
121 -65 -100 0
122 -120 -121 0
122 120 121 0
-122 -120 121 0
-122 120 -121 0
123 122 0
-123 -122 0
124 -119 0
124 -123 0
-124 119 123 0
-126 24 0
-126 30 0
126 -24 -30 0
127 -125 -126 0
127 125 126 0
-127 -125 126 0
-127 125 -126 0
128 127 0
-128 -127 0
129 -124 0
129 -128 0
-129 124 128 0
-131 18 0
-131 125 0
131 -18 -125 0
132 -130 -131 0
132 130 131 0
-132 -130 131 0
-132 130 -131 0
133 132 0
-133 -132 0
134 -129 0
134 -133 0
-134 129 133 0
-136 45 0
-136 125 0
136 -45 -125 0
137 -135 -136 0
137 135 136 0
-137 -135 136 0
-137 135 -136 0
138 137 0
-138 -137 0
139 -134 0
139 -138 0
-139 134 138 0
-141 55 0
-141 125 0
141 -55 -125 0
142 -140 -141 0
142 140 141 0
-142 -140 141 0
-142 140 -141 0
143 142 0
-143 -142 0
144 -139 0
144 -143 0
-144 139 143 0
-146 65 0
-146 125 0
146 -65 -125 0
147 -145 -146 0
147 145 146 0
-147 -145 146 0
-147 145 -146 0
148 147 0
-148 -147 0
149 -144 0
149 -148 0
-149 144 148 0
151 -150 -3 0
151 150 3 0
-151 -150 3 0
-151 150 -3 0
152 151 0
-152 -151 0
153 -149 0
153 -152 0
-153 149 152 0
155 -154 -8 0
155 154 8 0
-155 -154 8 0
-155 154 -8 0
156 155 0
-156 -155 0
157 -153 0
157 -156 0
-157 153 156 0
159 -158 -14 0
159 158 14 0
-159 -158 14 0
-159 158 -14 0
160 159 0
-160 -159 0
161 -157 0
161 -160 0
-161 157 160 0
-163 154 0
-163 158 0
163 -154 -158 0
164 -162 -163 0
164 162 163 0
-164 -162 163 0
-164 162 -163 0
165 164 0
-165 -164 0
166 -161 0
166 -165 0
-166 161 165 0
168 -167 -25 0
168 167 25 0
-168 -167 25 0
-168 167 -25 0
169 168 0
-169 -168 0
170 -166 0
170 -169 0
-170 166 169 0
172 -171 -31 0
172 171 31 0
-172 -171 31 0
-172 171 -31 0
173 172 0
-173 -172 0
174 -170 0
174 -173 0
-174 170 173 0
-176 167 0
-176 171 0
176 -167 -171 0
177 -175 -176 0
177 175 176 0
-177 -175 176 0
-177 175 -176 0
178 177 0
-178 -177 0
179 -174 0
179 -178 0
-179 174 178 0
-181 162 0
-181 175 0
181 -162 -175 0
182 -180 -181 0
182 180 181 0
-182 -180 181 0
-182 180 -181 0
183 182 0
-183 -182 0
184 -179 0
184 -183 0
-184 179 183 0
-186 7 0
-186 158 0
186 -7 -158 0
187 -185 -186 0
187 185 186 0
-187 -185 186 0
-187 185 -186 0
188 187 0
-188 -187 0
189 -184 0
189 -188 0
-189 184 188 0
-191 185 0
-191 175 0
191 -185 -175 0
192 -190 -191 0
192 190 191 0
-192 -190 191 0
-192 190 -191 0
193 192 0
-193 -192 0
194 -189 0
194 -193 0
-194 189 193 0
-196 154 0
-196 13 0
196 -154 -13 0
197 -195 -196 0
197 195 196 0
-197 -195 196 0
-197 195 -196 0
198 197 0
-198 -197 0
199 -194 0
199 -198 0
-199 194 198 0
-201 195 0
-201 175 0
201 -195 -175 0
202 -200 -201 0
202 200 201 0
-202 -200 201 0
-202 200 -201 0
203 202 0
-203 -202 0
204 -199 0
204 -203 0
-204 199 203 0
206 -205 -66 0
206 205 66 0
-206 -205 66 0
-206 205 -66 0
207 206 0
-207 -206 0
208 -204 0
208 -207 0
-208 204 207 0
-210 205 0
-210 175 0
210 -205 -175 0
211 -209 -210 0
211 209 210 0
-211 -209 210 0
-211 209 -210 0
212 211 0
-212 -211 0
213 -208 0
213 -212 0
-213 208 212 0
-215 24 0
-215 171 0
215 -24 -171 0
216 -214 -215 0
216 214 215 0
-216 -214 215 0
-216 214 -215 0
217 216 0
-217 -216 0
218 -213 0
218 -217 0
-218 213 217 0
-220 162 0
-220 214 0
220 -162 -214 0
221 -219 -220 0
221 219 220 0
-221 -219 220 0
-221 219 -220 0
222 221 0
-222 -221 0
223 -218 0
223 -222 0
-223 218 222 0
-225 185 0
-225 214 0
225 -185 -214 0
226 -224 -225 0
226 224 225 0
-226 -224 225 0
-226 224 -225 0
227 226 0
-227 -226 0
228 -223 0
228 -227 0
-228 223 227 0
-230 195 0
-230 214 0
230 -195 -214 0
231 -229 -230 0
231 229 230 0
-231 -229 230 0
-231 229 -230 0
232 231 0
-232 -231 0
233 -228 0
233 -232 0
-233 228 232 0
-235 205 0
-235 214 0
235 -205 -214 0
236 -234 -235 0
236 234 235 0
-236 -234 235 0
-236 234 -235 0
237 236 0
-237 -236 0
238 -233 0
238 -237 0
-238 233 237 0
-240 167 0
-240 30 0
240 -167 -30 0
241 -239 -240 0
241 239 240 0
-241 -239 240 0
-241 239 -240 0
242 241 0
-242 -241 0
243 -238 0
243 -242 0
-243 238 242 0
-245 162 0
-245 239 0
245 -162 -239 0
246 -244 -245 0
246 244 245 0
-246 -244 245 0
-246 244 -245 0
247 246 0
-247 -246 0
248 -243 0
248 -247 0
-248 243 247 0
-250 185 0
-250 239 0
250 -185 -239 0
251 -249 -250 0
251 249 250 0
-251 -249 250 0
-251 249 -250 0
252 251 0
-252 -251 0
253 -248 0
253 -252 0
-253 248 252 0
-255 195 0
-255 239 0
255 -195 -239 0
256 -254 -255 0
256 254 255 0
-256 -254 255 0
-256 254 -255 0
257 256 0
-257 -256 0
258 -253 0
258 -257 0
-258 253 257 0
-260 205 0
-260 239 0
260 -205 -239 0
261 -259 -260 0
261 259 260 0
-261 -259 260 0
-261 259 -260 0
262 261 0
-262 -261 0
263 -258 0
263 -262 0
-263 258 262 0
265 -264 -126 0
265 264 126 0
-265 -264 126 0
-265 264 -126 0
266 265 0
-266 -265 0
267 -263 0
267 -266 0
-267 263 266 0
-269 162 0
-269 264 0
269 -162 -264 0
270 -268 -269 0
270 268 269 0
-270 -268 269 0
-270 268 -269 0
271 270 0
-271 -270 0
272 -267 0
272 -271 0
-272 267 271 0
-274 185 0
-274 264 0
274 -185 -264 0
275 -273 -274 0
275 273 274 0
-275 -273 274 0
-275 273 -274 0
276 275 0
-276 -275 0
277 -272 0
277 -276 0
-277 272 276 0
-279 195 0
-279 264 0
279 -195 -264 0
280 -278 -279 0
280 278 279 0
-280 -278 279 0
-280 278 -279 0
281 280 0
-281 -280 0
282 -277 0
282 -281 0
-282 277 281 0
-284 205 0
-284 264 0
284 -205 -264 0
285 -283 -284 0
285 283 284 0
-285 -283 284 0
-285 283 -284 0
286 285 0
-286 -285 0
287 -282 0
287 -286 0
-287 282 286 0
289 -288 -175 0
289 288 175 0
-289 -288 175 0
-289 288 -175 0
290 289 0
-290 -289 0
291 -287 0
291 -290 0
-291 287 290 0
293 -292 -214 0
293 292 214 0
-293 -292 214 0
-293 292 -214 0
294 293 0
-294 -293 0
295 -291 0
295 -294 0
-295 291 294 0
297 -296 -154 0
297 296 154 0
-297 -296 154 0
-297 296 -154 0
298 297 0
-298 -297 0
299 -295 0
299 -298 0
-299 295 298 0
-301 150 0
-301 300 0
301 -150 -300 0
-302 301 0
-302 180 0
302 -301 -180 0
-304 150 0
-304 303 0
304 -150 -303 0
-305 304 0
-305 190 0
305 -304 -190 0
306 -302 0
306 -305 0
-306 302 305 0
-308 150 0
-308 307 0
308 -150 -307 0
-309 308 0
-309 200 0
309 -308 -200 0
-311 150 0
-311 310 0
311 -150 -310 0
-312 311 0
-312 209 0
312 -311 -209 0
313 -309 0
313 -312 0
-313 309 312 0
314 -306 0
314 -313 0
-314 306 313 0
-316 150 0
-316 315 0
316 -150 -315 0
-317 316 0
-317 219 0
317 -316 -219 0
-319 150 0
-319 318 0
319 -150 -318 0
-320 319 0
-320 224 0
320 -319 -224 0
321 -317 0
321 -320 0
-321 317 320 0
-323 150 0
-323 322 0
323 -150 -322 0
-324 323 0
-324 229 0
324 -323 -229 0
-326 150 0
-326 325 0
326 -150 -325 0
-327 326 0
-327 234 0
327 -326 -234 0
328 -324 0
328 -327 0
-328 324 327 0
329 -321 0
329 -328 0
-329 321 328 0
330 -314 0
330 -329 0
-330 314 329 0
-332 150 0
-332 331 0
332 -150 -331 0
-333 332 0
-333 244 0
333 -332 -244 0
-335 150 0
-335 334 0
335 -150 -334 0
-336 335 0
-336 249 0
336 -335 -249 0
337 -333 0
337 -336 0
-337 333 336 0
-339 150 0
-339 338 0
339 -150 -338 0
-340 339 0
-340 254 0
340 -339 -254 0
-342 150 0
-342 341 0
342 -150 -341 0
-343 342 0
-343 259 0
343 -342 -259 0
-344 340 0
-344 343 0
344 -340 -343 0
345 344 0
-345 -344 0
346 -337 0
346 -345 0
-346 337 345 0
-348 150 0
-348 347 0
348 -150 -347 0
-349 348 0
-349 268 0
349 -348 -268 0
-351 150 0
-351 350 0
351 -150 -350 0
-352 351 0
-352 273 0
352 -351 -273 0
353 -349 0
353 -352 0
-353 349 352 0
-355 150 0
-355 354 0
355 -150 -354 0
-356 355 0
-356 278 0
356 -355 -278 0
-358 150 0
-358 357 0
358 -150 -357 0
-359 358 0
-359 283 0
359 -358 -283 0
360 -356 0
360 -359 0
-360 356 359 0
361 -353 0
361 -360 0
-361 353 360 0
362 -346 0
362 -361 0
-362 346 361 0
363 -330 0
363 -362 0
-363 330 362 0
-365 2 0
-365 364 0
365 -2 -364 0
-366 365 0
-366 180 0
366 -365 -180 0
-368 2 0
-368 367 0
368 -2 -367 0
-369 368 0
-369 190 0
369 -368 -190 0
370 -366 0
370 -369 0
-370 366 369 0
-372 2 0
-372 371 0
372 -2 -371 0
-373 372 0
-373 200 0
373 -372 -200 0
375 -373 0
375 -374 0
-375 373 374 0
376 -370 0
376 -375 0
-376 370 375 0
-378 2 0
-378 377 0
378 -2 -377 0
-379 378 0
-379 219 0
379 -378 -219 0
-381 2 0
-381 380 0
381 -2 -380 0
-382 381 0
-382 224 0
382 -381 -224 0
383 -379 0
383 -382 0
-383 379 382 0
-386 2 0
-386 385 0
386 -2 -385 0
-387 386 0
-387 234 0
387 -386 -234 0
388 -384 0
388 -387 0
-388 384 387 0
389 -383 0
389 -388 0
-389 383 388 0
390 -376 0
390 -389 0
-390 376 389 0
-392 2 0
-392 391 0
392 -2 -391 0
-393 392 0
-393 244 0
393 -392 -244 0
-395 2 0
-395 394 0
395 -2 -394 0
-396 395 0
-396 249 0
396 -395 -249 0
397 -393 0
397 -396 0
-397 393 396 0
-399 398 0
-399 254 0
399 -398 -254 0
-401 2 0
-401 400 0
401 -2 -400 0
-402 401 0
-402 259 0
402 -401 -259 0
403 -399 0
403 -402 0
-403 399 402 0
404 -397 0
404 -403 0
-404 397 403 0
-406 2 0
-406 405 0
406 -2 -405 0
-407 406 0
-407 268 0
407 -406 -268 0
-409 2 0
-409 408 0
409 -2 -408 0
-410 409 0
-410 273 0
410 -409 -273 0
411 -407 0
411 -410 0
-411 407 410 0
-413 2 0
-413 412 0
413 -2 -412 0
-414 413 0
-414 278 0
414 -413 -278 0
-416 2 0
-416 415 0
416 -2 -415 0
-417 416 0
-417 283 0
417 -416 -283 0
418 -414 0
418 -417 0
-418 414 417 0
419 -411 0
419 -418 0
-419 411 418 0
420 -404 0
420 -419 0
-420 404 419 0
421 -390 0
421 -420 0
-421 390 420 0
422 -363 0
422 -421 0
-422 363 421 0
-423 1 0
-423 300 0
423 -1 -300 0
-424 423 0
-424 40 0
424 -423 -40 0
-425 1 0
-425 303 0
425 -1 -303 0
-426 425 0
-426 50 0
426 -425 -50 0
427 -424 0
427 -426 0
-427 424 426 0
-428 1 0
-428 307 0
428 -1 -307 0
-429 428 0
-429 60 0
429 -428 -60 0
-430 1 0
-430 310 0
430 -1 -310 0
-431 430 0
-431 70 0
431 -430 -70 0
432 -429 0
432 -431 0
-432 429 431 0
433 -427 0
433 -432 0
-433 427 432 0
-434 1 0
-434 315 0
434 -1 -315 0
-435 434 0
-435 80 0
435 -434 -80 0
-436 1 0
-436 318 0
436 -1 -318 0
-437 436 0
-437 85 0
437 -436 -85 0
438 -435 0
438 -437 0
-438 435 437 0
-439 1 0
-439 322 0
439 -1 -322 0
-440 439 0
-440 90 0
440 -439 -90 0
-441 1 0
-441 325 0
441 -1 -325 0
-442 441 0
-442 95 0
442 -441 -95 0
443 -440 0
443 -442 0
-443 440 442 0
444 -438 0
444 -443 0
-444 438 443 0
445 -433 0
445 -444 0
-445 433 444 0
-446 1 0
-446 331 0
446 -1 -331 0
-447 446 0
-447 105 0
447 -446 -105 0
-448 1 0
-448 334 0
448 -1 -334 0
-449 448 0
-449 110 0
449 -448 -110 0
450 -447 0
450 -449 0
-450 447 449 0
-451 1 0
-451 338 0
451 -1 -338 0
-452 451 0
-452 115 0
452 -451 -115 0
-453 1 0
-453 341 0
453 -1 -341 0
-454 453 0
-454 120 0
454 -453 -120 0
455 -452 0
455 -454 0
-455 452 454 0
456 -450 0
456 -455 0
-456 450 455 0
-457 1 0
-457 347 0
457 -1 -347 0
-458 457 0
-458 130 0
458 -457 -130 0
-459 1 0
-459 350 0
459 -1 -350 0
-460 459 0
-460 135 0
460 -459 -135 0
461 -458 0
461 -460 0
-461 458 460 0
-462 1 0
-462 354 0
462 -1 -354 0
-463 462 0
-463 140 0
463 -462 -140 0
-464 1 0
-464 357 0
464 -1 -357 0
-465 464 0
-465 145 0
465 -464 -145 0
466 -463 0
466 -465 0
-466 463 465 0
467 -461 0
467 -466 0
-467 461 466 0
468 -456 0
468 -467 0
-468 456 467 0
469 -445 0
469 -468 0
-469 445 468 0
-470 365 0
-470 40 0
470 -365 -40 0
-471 368 0
-471 50 0
471 -368 -50 0
472 -470 0
472 -471 0
-472 470 471 0
-473 372 0
-473 60 0
473 -372 -60 0
-475 2 0
-475 474 0
475 -2 -474 0
-476 475 0
-476 70 0
476 -475 -70 0
477 -473 0
477 -476 0
-477 473 476 0
478 -472 0
478 -477 0
-478 472 477 0
-479 378 0
-479 80 0
479 -378 -80 0
-480 381 0
-480 85 0
480 -381 -85 0
481 -479 0
481 -480 0
-481 479 480 0
-483 2 0
-483 482 0
483 -2 -482 0
-484 483 0
-484 90 0
484 -483 -90 0
-485 386 0
-485 95 0
485 -386 -95 0
486 -484 0
486 -485 0
-486 484 485 0
487 -481 0
487 -486 0
-487 481 486 0
488 -478 0
488 -487 0
-488 478 487 0
-489 392 0
-489 105 0
489 -392 -105 0
-490 395 0
-490 110 0
490 -395 -110 0
491 -489 0
491 -490 0
-491 489 490 0
-493 2 0
-493 492 0
493 -2 -492 0
-494 493 0
-494 115 0
494 -493 -115 0
-495 401 0
-495 120 0
495 -401 -120 0
496 -494 0
496 -495 0
-496 494 495 0
497 -491 0
497 -496 0
-497 491 496 0
-498 406 0
-498 130 0
498 -406 -130 0
-499 409 0
-499 135 0
499 -409 -135 0
500 -498 0
500 -499 0
-500 498 499 0
-501 413 0
-501 140 0
501 -413 -140 0
-502 416 0
-502 145 0
502 -416 -145 0
503 -501 0
503 -502 0
-503 501 502 0
504 -500 0
504 -503 0
-504 500 503 0
505 -497 0
505 -504 0
-505 497 504 0
506 -488 0
506 -505 0
-506 488 505 0
507 -469 0
507 -506 0
-507 469 506 0
508 -422 -507 0
508 422 507 0
-508 -422 507 0
-508 422 -507 0
509 -299 0
509 -508 0
-509 299 508 0
509 0
